results/x-long/X-n162-k11.vrp_seed-12.out
14161	1309
