results/x-long/X-n162-k11.vrp_seed-12.vrp.sol
Route #1: 155 92 125 93 132 87 4 101 151 146 39 137 108 158 91 136
Route #2: 22 34 19 18 64 12 70 113 63 104 83 98 47 25
Route #3: 143 153 110 128 124 134 148 109 2 82 118 30 157 112 40 103
Route #4: 15 139 126 138 133 107 122 84 160 85 121 147 159 135 72
Route #5: 54 8 76 41 61 46 69 65 42 51 3 33 75 44 7
Route #6: 53 90 145 68 58 38 73 11 48 26 28 150 152 45 50
Route #7: 78 79 20 67 62 114 95 129 88 106 31 140 154 111 80
Route #8: 59 156 115 141 119 144 105 10 29
Route #9: 52 116 102 96 142 43 123 56 66 100 94 36 35 99 130 86
Route #10: 23 24 49 6 13 71 37 131 57 32 16 5 120 81 74
Route #11: 127 17 149 89 14 1 55 60 21 9 27 117 97 77 161
Cost 14161.000000